NAME          DCAP_2_4_3_500_SS427
ROWS
 N  OBJ
 L  CON1
 L  CON2
 L  CON3
 L  CON4
 L  CON5
 L  CON6
 L  CON7
 L  CON8
 L  CON9
 L  CON10
 L  CON11
 L  CON12
 E  CON13
 E  CON14
 E  CON15
 E  CON16
 E  CON17
 E  CON18
 E  CON19
 E  CON20
 E  CON21
 E  CON22
 E  CON23
 E  CON24
COLUMNS
    x[1,1]    OBJ       6.180167      CON1      1.000000    
    x[1,1]    CON7      -1.000000     CON8      -1.000000   
    x[1,1]    CON9      -1.000000   
    x[1,2]    OBJ       6.563535      CON2      1.000000    
    x[1,2]    CON8      -1.000000     CON9      -1.000000   
    x[1,3]    OBJ       7.443064      CON3      1.000000    
    x[1,3]    CON9      -1.000000   
    x[2,1]    OBJ       6.732585      CON4      1.000000    
    x[2,1]    CON10     -1.000000     CON11     -1.000000   
    x[2,1]    CON12     -1.000000   
    x[2,2]    OBJ       5.039546      CON5      1.000000    
    x[2,2]    CON11     -1.000000     CON12     -1.000000   
    x[2,3]    OBJ       6.054841      CON6      1.000000    
    x[2,3]    CON12     -1.000000   
    MARKER    'MARKER'                'INTORG'
    u[1,1]    OBJ       48.076654     CON1      -1.000000   
    u[1,2]    OBJ       20.066487     CON2      -1.000000   
    u[1,3]    OBJ       32.230043     CON3      -1.000000   
    u[2,1]    OBJ       49.996186     CON4      -1.000000   
    u[2,2]    OBJ       49.466655     CON5      -1.000000   
    u[2,3]    OBJ       27.484319     CON6      -1.000000   
    y[1,1,1]  OBJ       9.934827      CON7      1.484187    
    y[1,1,1]  CON13     1.000000    
    y[1,1,2]  OBJ       6.628578      CON8      1.450579    
    y[1,1,2]  CON14     1.000000    
    y[1,1,3]  OBJ       5.187648      CON9      1.215441    
    y[1,1,3]  CON15     1.000000    
    y[1,2,1]  OBJ       8.750917      CON7      0.855818    
    y[1,2,1]  CON16     1.000000    
    y[1,2,2]  OBJ       6.467342      CON8      1.437280    
    y[1,2,2]  CON17     1.000000    
    y[1,2,3]  OBJ       7.063217      CON9      1.481047    
    y[1,2,3]  CON18     1.000000    
    y[1,3,1]  OBJ       5.930699      CON7      1.130779    
    y[1,3,1]  CON19     1.000000    
    y[1,3,2]  OBJ       5.698656      CON8      0.700245    
    y[1,3,2]  CON20     1.000000    
    y[1,3,3]  OBJ       6.360700      CON9      0.865924    
    y[1,3,3]  CON21     1.000000    
    y[1,4,1]  OBJ       8.460169      CON7      0.919190    
    y[1,4,1]  CON22     1.000000    
    y[1,4,2]  OBJ       6.194716      CON8      1.232882    
    y[1,4,2]  CON23     1.000000    
    y[1,4,3]  OBJ       7.872151      CON9      0.582651    
    y[1,4,3]  CON24     1.000000    
    y[2,1,1]  OBJ       5.873836      CON10     1.484187    
    y[2,1,1]  CON13     1.000000    
    y[2,1,2]  OBJ       8.024346      CON11     1.450579    
    y[2,1,2]  CON14     1.000000    
    y[2,1,3]  OBJ       9.630987      CON12     1.215441    
    y[2,1,3]  CON15     1.000000    
    y[2,2,1]  OBJ       6.997584      CON10     0.855818    
    y[2,2,1]  CON16     1.000000    
    y[2,2,2]  OBJ       8.040981      CON11     1.437280    
    y[2,2,2]  CON17     1.000000    
    y[2,2,3]  OBJ       8.223464      CON12     1.481047    
    y[2,2,3]  CON18     1.000000    
    y[2,3,1]  OBJ       8.812619      CON10     1.130779    
    y[2,3,1]  CON19     1.000000    
    y[2,3,2]  OBJ       8.184161      CON11     0.700245    
    y[2,3,2]  CON20     1.000000    
    y[2,3,3]  OBJ       6.170814      CON12     0.865924    
    y[2,3,3]  CON21     1.000000    
    y[2,4,1]  OBJ       5.748295      CON10     0.919190    
    y[2,4,1]  CON22     1.000000    
    y[2,4,2]  OBJ       8.798940      CON11     1.232882    
    y[2,4,2]  CON23     1.000000    
    y[2,4,3]  OBJ       9.303558      CON12     0.582651    
    y[2,4,3]  CON24     1.000000    
    z[1,1]    OBJ       508.091352    CON13     1.000000    
    z[1,2]    OBJ       662.862360    CON14     1.000000    
    z[1,3]    OBJ       744.634186    CON15     1.000000    
    z[2,1]    OBJ       977.869143    CON16     1.000000    
    z[2,2]    OBJ       860.745626    CON17     1.000000    
    z[2,3]    OBJ       611.448728    CON18     1.000000    
    z[3,1]    OBJ       749.115091    CON19     1.000000    
    z[3,2]    OBJ       507.905193    CON20     1.000000    
    z[3,3]    OBJ       767.076190    CON21     1.000000    
    z[4,1]    OBJ       518.986429    CON22     1.000000    
    z[4,2]    OBJ       570.671441    CON23     1.000000    
    z[4,3]    OBJ       792.575175    CON24     1.000000    
    MARKER    'MARKER'                 'INTEND'
RHS
    RHS       CON1      -0.000000     CON2      -0.000000   
    RHS       CON3      -0.000000     CON4      -0.000000   
    RHS       CON5      -0.000000     CON6      -0.000000   
    RHS       CON7      -0.000000     CON8      -0.000000   
    RHS       CON9      -0.000000     CON10     -0.000000   
    RHS       CON11     -0.000000     CON12     -0.000000   
    RHS       CON13     1.000000      CON14     1.000000    
    RHS       CON15     1.000000      CON16     1.000000    
    RHS       CON17     1.000000      CON18     1.000000    
    RHS       CON19     1.000000      CON20     1.000000    
    RHS       CON21     1.000000      CON22     1.000000    
    RHS       CON23     1.000000      CON24     1.000000    
BOUNDS
 BV BOUND     u[1,1]  
 BV BOUND     u[1,2]  
 BV BOUND     u[1,3]  
 BV BOUND     u[2,1]  
 BV BOUND     u[2,2]  
 BV BOUND     u[2,3]  
 BV BOUND     y[1,1,1]
 BV BOUND     y[1,1,2]
 BV BOUND     y[1,1,3]
 BV BOUND     y[1,2,1]
 BV BOUND     y[1,2,2]
 BV BOUND     y[1,2,3]
 BV BOUND     y[1,3,1]
 BV BOUND     y[1,3,2]
 BV BOUND     y[1,3,3]
 BV BOUND     y[1,4,1]
 BV BOUND     y[1,4,2]
 BV BOUND     y[1,4,3]
 BV BOUND     y[2,1,1]
 BV BOUND     y[2,1,2]
 BV BOUND     y[2,1,3]
 BV BOUND     y[2,2,1]
 BV BOUND     y[2,2,2]
 BV BOUND     y[2,2,3]
 BV BOUND     y[2,3,1]
 BV BOUND     y[2,3,2]
 BV BOUND     y[2,3,3]
 BV BOUND     y[2,4,1]
 BV BOUND     y[2,4,2]
 BV BOUND     y[2,4,3]
 BV BOUND     z[1,1]  
 BV BOUND     z[1,2]  
 BV BOUND     z[1,3]  
 BV BOUND     z[2,1]  
 BV BOUND     z[2,2]  
 BV BOUND     z[2,3]  
 BV BOUND     z[3,1]  
 BV BOUND     z[3,2]  
 BV BOUND     z[3,3]  
 BV BOUND     z[4,1]  
 BV BOUND     z[4,2]  
 BV BOUND     z[4,3]  
ENDATA
